c b=3,c=3
p cnf 8 21
2 3 -6 0
1 3 -7 0
2 -3 6 0
2 -3 7 0
1 2 -5 0
2 -8 0
1 -2 3 6 0
3 -8 0
1 -2 -3 -6 0
-2 -3 8 0
1 -2 5 0
1 -2 -7 0
1 -4 0
-1 3 -6 0
2 3 -7 0
-1 -3 6 0
-1 2 5 0
-1 -2 3 7 0
-2 -3 -7 0
-1 -2 -5 0
-1 4 0
